out/bwp_3_7_1_lp.out
12
-0 -0    1 1
1 2    2 3
1 4    2 5
-0 6    1 7
1 8    2 9
1 10    2 11
-0 9    0 11
