out/bwp_3_7_1_lp.log
Tried aggregator 2 times.
MIP Presolve eliminated 13 rows and 97 columns.
MIP Presolve modified 69 coefficients.
Aggregator did 99 substitutions.
Reduced MIP has 290 rows, 241 columns, and 686 nonzeros.
Reduced MIP has 169 binaries, 9 generals, 0 SOSs, and 84 indicators.
Presolve time = 0.00 sec. (0.77 ticks)
Probing fixed 90 vars, tightened 214 bounds.
Probing time = 0.00 sec. (0.67 ticks)
Tried aggregator 3 times.
MIP Presolve eliminated 139 rows and 90 columns.
MIP Presolve modified 56 coefficients.
Aggregator did 54 substitutions.
Reduced MIP has 111 rows, 97 columns, and 310 nonzeros.
Reduced MIP has 67 binaries, 24 generals, 0 SOSs, and 10 indicators.
Presolve time = 0.00 sec. (0.60 ticks)
Probing time = 0.00 sec. (0.26 ticks)
Tried aggregator 2 times.
MIP Presolve eliminated 14 rows and 0 columns.
MIP Presolve modified 6 coefficients.
Aggregator did 6 substitutions.
Reduced MIP has 91 rows, 91 columns, and 279 nonzeros.
Reduced MIP has 67 binaries, 21 generals, 0 SOSs, and 10 indicators.
Presolve time = 0.00 sec. (0.28 ticks)
Probing time = 0.00 sec. (0.19 ticks)
Clique table members: 272.
MIP emphasis: balance optimality and feasibility.
MIP search method: dynamic search.
Parallel mode: deterministic, using up to 4 threads.
Root relaxation solution time = 0.00 sec. (0.21 ticks)

        Nodes                                         Cuts/
   Node  Left     Objective  IInf  Best Integer    Best Bound    ItCnt     Gap

      0     0       12.0000    14                     12.0000       21         
*     0+    0                           13.0000       12.0000       21    7.69%
*     0     0      integral     0       12.0000       12.0000       21    0.00%
Elapsed time = 0.03 sec. (6.43 ticks, tree = 0.00 MB, solutions = 2)

Root node processing (before b&c):
  Real time             =    0.03 sec. (6.45 ticks)
Parallel b&c, 4 threads:
  Real time             =    0.00 sec. (0.00 ticks)
  Sync time (average)   =    0.00 sec.
  Wait time (average)   =    0.00 sec.
                          ------------
Total (root+branch&cut) =    0.03 sec. (6.45 ticks)
